true true true
feasible solution found by trivial heuristic after 0.0 seconds, objective value 5.600000e+01
presolving:
presolving (0 rounds: 0 fast, 0 medium, 0 exhaustive):
 0 deleted vars, 0 deleted constraints, 0 added constraints, 0 tightened bounds, 0 added holes, 0 changed sides, 0 changed coefficients
 0 implications, 0 cliques
presolved problem has 56 variables (56 bin, 0 int, 0 impl, 0 cont) and 48 constraints
     48 constraints of type <linear>
transformed objective value is always integral (scale: 1)
Presolving Time: 0.00
transformed 1/1 original solutions to the transformed problem space

 time | node  | left  |LP iter|LP it/n|mem/heur|mdpt |vars |cons |rows |cuts |sepa|confs|strbr|  dualbound   | primalbound  |  gap   | compl. 
p 0.0s|     1 |     0 |     0 |     - |   locks|   0 |  56 |  48 |  48 |   0 |  0 |   0 |   0 |      --      | 8.000000e+00 |    Inf | unknown
 time | node  | left  |LP iter|LP it/n|mem/heur|mdpt |vars |cons |rows |cuts |sepa|confs|strbr|  dualbound   | primalbound  |  gap   | compl. 
  0.0s|     1 |     0 |    25 |     - |  1638k |   0 | 344 |  48 |  48 |   0 |  0 |   0 |   0 | 1.000000e+00 | 8.000000e+00 | 700.00%| unknown
 time | node  | left  |LP iter|LP it/n|mem/heur|mdpt |vars |cons |rows |cuts |sepa|confs|strbr|  dualbound   | primalbound  |  gap   | compl. 
  325s|     1 |     0 |  1012 |     - |    19M |   0 |5071 |  48 |  48 |   0 |  0 |   0 |   0 | 6.000000e+00 | 8.000000e+00 |  33.33%| unknown
 time | node  | left  |LP iter|LP it/n|mem/heur|mdpt |vars |cons |rows |cuts |sepa|confs|strbr|  dualbound   | primalbound  |  gap   | compl. 
L 325s|     1 |     0 |  1356 |     - |    rens|   0 |5071 |  48 |  48 |   0 |  1 |   0 |   0 | 6.000000e+00 | 7.000000e+00 |  16.67%| unknown
 time | node  | left  |LP iter|LP it/n|mem/heur|mdpt |vars |cons |rows |cuts |sepa|confs|strbr|  dualbound   | primalbound  |  gap   | compl. 
  325s|     1 |     0 |  1356 |     - |    21M |   0 |5071 |  48 |  48 |   0 |  1 |   0 |   0 | 6.000000e+00 | 7.000000e+00 |  16.67%| unknown
 time | node  | left  |LP iter|LP it/n|mem/heur|mdpt |vars |cons |rows |cuts |sepa|confs|strbr|  dualbound   | primalbound  |  gap   | compl. 
  325s|     1 |     2 |  1356 |     - |    21M |   0 |5071 |  48 |  48 |   0 |  2 |   0 |   0 | 6.000000e+00 | 7.000000e+00 |  16.67%| unknown
 time | node  | left  |LP iter|LP it/n|mem/heur|mdpt |vars |cons |rows |cuts |sepa|confs|strbr|  dualbound   | primalbound  |  gap   | compl. 
  325s|     2 |     3 |  1371 |  15.0 |    22M |   1 |5071 |  48 |  48 |   0 |  1 |   0 |   0 | 6.000000e+00 | 7.000000e+00 |  16.67%| unknown
 time | node  | left  |LP iter|LP it/n|mem/heur|mdpt |vars |cons |rows |cuts |sepa|confs|strbr|  dualbound   | primalbound  |  gap   | compl. 
  325s|     3 |     4 |  1401 |  22.5 |    23M |   2 |5071 |  48 |  48 |   0 |  1 |   0 |   0 | 6.000000e+00 | 7.000000e+00 |  16.67%| unknown
 time | node  | left  |LP iter|LP it/n|mem/heur|mdpt |vars |cons |rows |cuts |sepa|confs|strbr|  dualbound   | primalbound  |  gap   | compl. 
  326s|     4 |     5 |  2518 | 387.3 |    29M |   2 |5071 |  48 |  48 |   0 |  1 |   0 |   0 | 6.000000e+00 | 7.000000e+00 |  16.67%| unknown
 time | node  | left  |LP iter|LP it/n|mem/heur|mdpt |vars |cons |rows |cuts |sepa|confs|strbr|  dualbound   | primalbound  |  gap   | compl. 
  326s|     5 |     6 |  2582 | 306.5 |    29M |   2 |5071 |  48 |  48 |   0 |  1 |   0 |   0 | 6.000000e+00 | 7.000000e+00 |  16.67%| unknown
 time | node  | left  |LP iter|LP it/n|mem/heur|mdpt |vars |cons |rows |cuts |sepa|confs|strbr|  dualbound   | primalbound  |  gap   | compl. 
  326s|     6 |     7 |  2592 | 247.2 |    29M |   2 |5071 |  48 |  48 |   0 |  1 |   0 |   0 | 6.000000e+00 | 7.000000e+00 |  16.67%| unknown
 time | node  | left  |LP iter|LP it/n|mem/heur|mdpt |vars |cons |rows |cuts |sepa|confs|strbr|  dualbound   | primalbound  |  gap   | compl. 
  326s|     7 |     8 |  2729 | 228.8 |    29M |   2 |5071 |  48 |  48 |   0 |  1 |   0 |   0 | 6.000000e+00 | 7.000000e+00 |  16.67%| unknown
 time | node  | left  |LP iter|LP it/n|mem/heur|mdpt |vars |cons |rows |cuts |sepa|confs|strbr|  dualbound   | primalbound  |  gap   | compl. 
  327s|     8 |     9 |  2785 | 204.1 |    31M |   3 |5071 |  48 |  48 |   0 |  1 |   0 |   0 | 6.000000e+00 | 7.000000e+00 |  16.67%| unknown
 time | node  | left  |LP iter|LP it/n|mem/heur|mdpt |vars |cons |rows |cuts |sepa|confs|strbr|  dualbound   | primalbound  |  gap   | compl. 
  327s|     9 |    10 |  2794 | 179.8 |    32M |   4 |5071 |  48 |  48 |   0 |  1 |   0 |   0 | 6.000000e+00 | 7.000000e+00 |  16.67%| unknown
 time | node  | left  |LP iter|LP it/n|mem/heur|mdpt |vars |cons |rows |cuts |sepa|confs|strbr|  dualbound   | primalbound  |  gap   | compl. 
  327s|    10 |    11 |  2819 | 162.6 |    32M |   4 |5071 |  48 |  48 |   0 |  1 |   0 |   0 | 6.000000e+00 | 7.000000e+00 |  16.67%| unknown
 time | node  | left  |LP iter|LP it/n|mem/heur|mdpt |vars |cons |rows |cuts |sepa|confs|strbr|  dualbound   | primalbound  |  gap   | compl. 
  328s|    11 |    12 |  2823 | 146.7 |    32M |   5 |5071 |  48 |  48 |   0 |  1 |   0 |   0 | 6.000000e+00 | 7.000000e+00 |  16.67%| unknown
 time | node  | left  |LP iter|LP it/n|mem/heur|mdpt |vars |cons |rows |cuts |sepa|confs|strbr|  dualbound   | primalbound  |  gap   | compl. 
  328s|    12 |    13 |  3234 | 170.7 |    33M |   5 |5207 |  48 |  48 |   0 |  1 |   0 |   0 | 6.000000e+00 | 7.000000e+00 |  16.67%| unknown
 time | node  | left  |LP iter|LP it/n|mem/heur|mdpt |vars |cons |rows |cuts |sepa|confs|strbr|  dualbound   | primalbound  |  gap   | compl. 
  329s|    13 |    14 |  3248 | 157.7 |    33M |   6 |5207 |  48 |  48 |   0 |  1 |   0 |   0 | 6.000000e+00 | 7.000000e+00 |  16.67%| unknown
 time | node  | left  |LP iter|LP it/n|mem/heur|mdpt |vars |cons |rows |cuts |sepa|confs|strbr|  dualbound   | primalbound  |  gap   | compl. 
  329s|    14 |    15 |  3271 | 147.3 |    33M |   7 |5207 |  48 |  48 |   0 |  1 |   0 |   0 | 6.000000e+00 | 7.000000e+00 |  16.67%| unknown
 time | node  | left  |LP iter|LP it/n|mem/heur|mdpt |vars |cons |rows |cuts |sepa|confs|strbr|  dualbound   | primalbound  |  gap   | compl. 
  330s|    15 |    16 |  3390 | 145.3 |    33M |   7 |5207 |  48 |  48 |   0 |  1 |   0 |   0 | 6.000000e+00 | 7.000000e+00 |  16.67%| unknown
 time | node  | left  |LP iter|LP it/n|mem/heur|mdpt |vars |cons |rows |cuts |sepa|confs|strbr|  dualbound   | primalbound  |  gap   | compl. 
  330s|    16 |    17 |  3612 | 150.4 |    34M |   7 |5207 |  48 |  48 |   0 |  1 |   0 |   0 | 6.000000e+00 | 7.000000e+00 |  16.67%| unknown
 time | node  | left  |LP iter|LP it/n|mem/heur|mdpt |vars |cons |rows |cuts |sepa|confs|strbr|  dualbound   | primalbound  |  gap   | compl. 
  331s|    17 |    16 |  3859 | 156.4 |    34M |   8 |5530 |  48 |  48 |   0 |  0 |   0 |   0 | 6.000000e+00 | 7.000000e+00 |  16.67%| unknown
 time | node  | left  |LP iter|LP it/n|mem/heur|mdpt |vars |cons |rows |cuts |sepa|confs|strbr|  dualbound   | primalbound  |  gap   | compl. 
  331s|    18 |    17 |  4080 | 160.2 |    34M |   8 |5530 |  48 |  48 |   0 |  1 |   0 |   0 | 6.000000e+00 | 7.000000e+00 |  16.67%| unknown
 time | node  | left  |LP iter|LP it/n|mem/heur|mdpt |vars |cons |rows |cuts |sepa|confs|strbr|  dualbound   | primalbound  |  gap   | compl. 
  332s|    19 |    18 |  4411 | 169.7 |    34M |   8 |5530 |  48 |  48 |   0 |  1 |   0 |   0 | 6.000000e+00 | 7.000000e+00 |  16.67%| unknown
 time | node  | left  |LP iter|LP it/n|mem/heur|mdpt |vars |cons |rows |cuts |sepa|confs|strbr|  dualbound   | primalbound  |  gap   | compl. 
  333s|    20 |    19 |  4442 | 162.4 |    34M |   8 |5530 |  48 |  48 |   0 |  1 |   0 |   0 | 6.000000e+00 | 7.000000e+00 |  16.67%| unknown
 time | node  | left  |LP iter|LP it/n|mem/heur|mdpt |vars |cons |rows |cuts |sepa|confs|strbr|  dualbound   | primalbound  |  gap   | compl. 
  333s|    21 |    20 |  4648 | 164.6 |    34M |   8 |5530 |  48 |  48 |   0 |  1 |   0 |   0 | 6.000000e+00 | 7.000000e+00 |  16.67%| unknown
 time | node  | left  |LP iter|LP it/n|mem/heur|mdpt |vars |cons |rows |cuts |sepa|confs|strbr|  dualbound   | primalbound  |  gap   | compl. 
  333s|    22 |    21 |  5036 | 175.2 |    34M |   8 |5530 |  48 |  48 |   0 |  1 |   0 |   0 | 6.000000e+00 | 7.000000e+00 |  16.67%| unknown
 time | node  | left  |LP iter|LP it/n|mem/heur|mdpt |vars |cons |rows |cuts |sepa|confs|strbr|  dualbound   | primalbound  |  gap   | compl. 
  334s|    23 |    22 |  5077 | 169.1 |    34M |   8 |5530 |  48 |  48 |   0 |  1 |   0 |   0 | 6.000000e+00 | 7.000000e+00 |  16.67%| unknown
 time | node  | left  |LP iter|LP it/n|mem/heur|mdpt |vars |cons |rows |cuts |sepa|confs|strbr|  dualbound   | primalbound  |  gap   | compl. 
  334s|    24 |    23 |  5090 | 162.3 |    34M |   8 |5530 |  48 |  48 |   0 |  1 |   0 |   0 | 6.000000e+00 | 7.000000e+00 |  16.67%| unknown
 time | node  | left  |LP iter|LP it/n|mem/heur|mdpt |vars |cons |rows |cuts |sepa|confs|strbr|  dualbound   | primalbound  |  gap   | compl. 
  334s|    25 |    24 |  5252 | 162.3 |    34M |   8 |5530 |  48 |  48 |   0 |  1 |   0 |   0 | 6.000000e+00 | 7.000000e+00 |  16.67%| unknown
 time | node  | left  |LP iter|LP it/n|mem/heur|mdpt |vars |cons |rows |cuts |sepa|confs|strbr|  dualbound   | primalbound  |  gap   | compl. 
  335s|    26 |    25 |  5488 | 165.3 |    34M |   8 |5530 |  48 |  48 |   0 |  1 |   0 |   0 | 6.000000e+00 | 7.000000e+00 |  16.67%| unknown
 time | node  | left  |LP iter|LP it/n|mem/heur|mdpt |vars |cons |rows |cuts |sepa|confs|strbr|  dualbound   | primalbound  |  gap   | compl. 
  335s|    27 |    26 |  5491 | 159.0 |    34M |   8 |5530 |  48 |  48 |   0 |  1 |   0 |   0 | 6.000000e+00 | 7.000000e+00 |  16.67%| unknown
 time | node  | left  |LP iter|LP it/n|mem/heur|mdpt |vars |cons |rows |cuts |sepa|confs|strbr|  dualbound   | primalbound  |  gap   | compl. 
  335s|    28 |    27 |  5533 | 154.7 |    34M |   8 |5530 |  48 |  48 |   0 |  1 |   0 |   0 | 6.000000e+00 | 7.000000e+00 |  16.67%| unknown
 time | node  | left  |LP iter|LP it/n|mem/heur|mdpt |vars |cons |rows |cuts |sepa|confs|strbr|  dualbound   | primalbound  |  gap   | compl. 
  336s|    29 |    28 |  5550 | 149.8 |    34M |   8 |5530 |  48 |  48 |   0 |  1 |   0 |   0 | 6.000000e+00 | 7.000000e+00 |  16.67%| unknown
 time | node  | left  |LP iter|LP it/n|mem/heur|mdpt |vars |cons |rows |cuts |sepa|confs|strbr|  dualbound   | primalbound  |  gap   | compl. 
  336s|    30 |    29 |  5555 | 144.8 |    34M |   9 |5530 |  48 |  48 |   0 |  1 |   0 |   0 | 6.000000e+00 | 7.000000e+00 |  16.67%| unknown
 time | node  | left  |LP iter|LP it/n|mem/heur|mdpt |vars |cons |rows |cuts |sepa|confs|strbr|  dualbound   | primalbound  |  gap   | compl. 
  337s|    31 |    30 |  5702 | 144.9 |    35M |  10 |5718 |  48 |  48 |   0 |  1 |   0 |   0 | 6.000000e+00 | 7.000000e+00 |  16.67%| unknown
 time | node  | left  |LP iter|LP it/n|mem/heur|mdpt |vars |cons |rows |cuts |sepa|confs|strbr|  dualbound   | primalbound  |  gap   | compl. 
  337s|    32 |    31 |  5995 | 149.6 |    35M |  11 |5718 |  48 |  48 |   0 |  1 |   0 |   0 | 6.000000e+00 | 7.000000e+00 |  16.67%| unknown
 time | node  | left  |LP iter|LP it/n|mem/heur|mdpt |vars |cons |rows |cuts |sepa|confs|strbr|  dualbound   | primalbound  |  gap   | compl. 
  338s|    33 |    32 |  6035 | 146.2 |    35M |  11 |5718 |  48 |  48 |   0 |  1 |   0 |   0 | 6.000000e+00 | 7.000000e+00 |  16.67%| unknown
 time | node  | left  |LP iter|LP it/n|mem/heur|mdpt |vars |cons |rows |cuts |sepa|confs|strbr|  dualbound   | primalbound  |  gap   | compl. 
  338s|    34 |    33 |  6187 | 146.4 |    35M |  11 |5718 |  48 |  48 |   0 |  1 |   0 |   0 | 6.000000e+00 | 7.000000e+00 |  16.67%| unknown
 time | node  | left  |LP iter|LP it/n|mem/heur|mdpt |vars |cons |rows |cuts |sepa|confs|strbr|  dualbound   | primalbound  |  gap   | compl. 
  338s|    35 |    34 |  6310 | 145.7 |    35M |  11 |5718 |  48 |  48 |   0 |  1 |   0 |   0 | 6.000000e+00 | 7.000000e+00 |  16.67%| unknown
 time | node  | left  |LP iter|LP it/n|mem/heur|mdpt |vars |cons |rows |cuts |sepa|confs|strbr|  dualbound   | primalbound  |  gap   | compl. 
  340s|    36 |    35 |  6744 | 153.9 |    36M |  11 |6042 |  48 |  48 |   0 |  1 |   0 |   0 | 6.000000e+00 | 7.000000e+00 |  16.67%| unknown
 time | node  | left  |LP iter|LP it/n|mem/heur|mdpt |vars |cons |rows |cuts |sepa|confs|strbr|  dualbound   | primalbound  |  gap   | compl. 
  341s|    37 |    34 |  6799 | 151.2 |    37M |  11 |6066 |  48 |  48 |   0 |  0 |   0 |   0 | 6.000000e+00 | 7.000000e+00 |  16.67%| unknown
 time | node  | left  |LP iter|LP it/n|mem/heur|mdpt |vars |cons |rows |cuts |sepa|confs|strbr|  dualbound   | primalbound  |  gap   | compl. 
  341s|    38 |    35 |  6840 | 148.2 |    37M |  11 |6066 |  48 |  48 |   0 |  1 |   0 |   0 | 6.000000e+00 | 7.000000e+00 |  16.67%|   0.72%
 time | node  | left  |LP iter|LP it/n|mem/heur|mdpt |vars |cons |rows |cuts |sepa|confs|strbr|  dualbound   | primalbound  |  gap   | compl. 
  342s|    39 |    36 |  7026 | 149.2 |    37M |  11 |6228 |  48 |  48 |   0 |  1 |   0 |   0 | 6.000000e+00 | 7.000000e+00 |  16.67%|   0.72%
 time | node  | left  |LP iter|LP it/n|mem/heur|mdpt |vars |cons |rows |cuts |sepa|confs|strbr|  dualbound   | primalbound  |  gap   | compl. 
  343s|    40 |    37 |  7164 | 148.9 |    39M |  11 |6441 |  48 |  48 |   0 |  1 |   0 |   0 | 6.000000e+00 | 7.000000e+00 |  16.67%|   0.72%
 time | node  | left  |LP iter|LP it/n|mem/heur|mdpt |vars |cons |rows |cuts |sepa|confs|strbr|  dualbound   | primalbound  |  gap   | compl. 
  344s|    41 |    38 |  7210 | 146.3 |    39M |  11 |6496 |  48 |  48 |   0 |  1 |   0 |   0 | 6.000000e+00 | 7.000000e+00 |  16.67%|   0.72%
 time | node  | left  |LP iter|LP it/n|mem/heur|mdpt |vars |cons |rows |cuts |sepa|confs|strbr|  dualbound   | primalbound  |  gap   | compl. 
  355s|    42 |    39 |  7296 | 144.9 |    39M |  11 |6530 |  48 |  48 |   0 |  1 |   0 |   0 | 6.000000e+00 | 7.000000e+00 |  16.67%|   0.72%
 time | node  | left  |LP iter|LP it/n|mem/heur|mdpt |vars |cons |rows |cuts |sepa|confs|strbr|  dualbound   | primalbound  |  gap   | compl. 
  356s|    43 |    38 |  7347 | 142.6 |    39M |  12 |6536 |  48 |  48 |   0 |  0 |   0 |   0 | 6.000000e+00 | 7.000000e+00 |  16.67%|   0.72%
 time | node  | left  |LP iter|LP it/n|mem/heur|mdpt |vars |cons |rows |cuts |sepa|confs|strbr|  dualbound   | primalbound  |  gap   | compl. 
  359s|    44 |    37 |  7638 | 146.1 |    41M |  12 |6824 |  48 |  48 |   0 |  0 |   0 |   0 | 6.000000e+00 | 7.000000e+00 |  16.67%|   0.73%
 time | node  | left  |LP iter|LP it/n|mem/heur|mdpt |vars |cons |rows |cuts |sepa|confs|strbr|  dualbound   | primalbound  |  gap   | compl. 
  360s|    45 |    36 |  7803 | 146.5 |    41M |  12 |7035 |  48 |  48 |   0 |  0 |   0 |   0 | 6.000000e+00 | 7.000000e+00 |  16.67%|   0.73%
 time | node  | left  |LP iter|LP it/n|mem/heur|mdpt |vars |cons |rows |cuts |sepa|confs|strbr|  dualbound   | primalbound  |  gap   | compl. 
  361s|    46 |    35 |  7855 | 144.4 |    41M |  12 |7050 |  48 |  48 |   0 |  0 |   0 |   0 | 6.000000e+00 | 7.000000e+00 |  16.67%|   0.77%
 time | node  | left  |LP iter|LP it/n|mem/heur|mdpt |vars |cons |rows |cuts |sepa|confs|strbr|  dualbound   | primalbound  |  gap   | compl. 
  361s|    47 |    36 |  7966 | 143.7 |    41M |  12 |7050 |  48 |  48 |   0 |  1 |   0 |   0 | 6.000000e+00 | 7.000000e+00 |  16.67%|   0.79%
 time | node  | left  |LP iter|LP it/n|mem/heur|mdpt |vars |cons |rows |cuts |sepa|confs|strbr|  dualbound   | primalbound  |  gap   | compl. 
  362s|    48 |    37 |  8018 | 141.7 |    41M |  12 |7050 |  48 |  48 |   0 |  1 |   0 |   0 | 6.000000e+00 | 7.000000e+00 |  16.67%|   0.79%
 time | node  | left  |LP iter|LP it/n|mem/heur|mdpt |vars |cons |rows |cuts |sepa|confs|strbr|  dualbound   | primalbound  |  gap   | compl. 
  362s|    49 |    38 |  8029 | 139.0 |    41M |  12 |7050 |  48 |  48 |   0 |  1 |   0 |   0 | 6.000000e+00 | 7.000000e+00 |  16.67%|   0.79%
 time | node  | left  |LP iter|LP it/n|mem/heur|mdpt |vars |cons |rows |cuts |sepa|confs|strbr|  dualbound   | primalbound  |  gap   | compl. 
  363s|    50 |    39 |  8057 | 136.8 |    41M |  12 |7050 |  48 |  48 |   0 |  1 |   0 |   0 | 6.000000e+00 | 7.000000e+00 |  16.67%|   0.79%
 time | node  | left  |LP iter|LP it/n|mem/heur|mdpt |vars |cons |rows |cuts |sepa|confs|strbr|  dualbound   | primalbound  |  gap   | compl. 
  363s|    51 |    40 |  8446 | 141.8 |    41M |  13 |7050 |  48 |  48 |   0 |  1 |   0 |   0 | 6.000000e+00 | 7.000000e+00 |  16.67%|   0.79%
 time | node  | left  |LP iter|LP it/n|mem/heur|mdpt |vars |cons |rows |cuts |sepa|confs|strbr|  dualbound   | primalbound  |  gap   | compl. 
  363s|    52 |    41 |  8470 | 139.5 |    42M |  13 |7050 |  48 |  48 |   0 |  1 |   0 |   0 | 6.000000e+00 | 7.000000e+00 |  16.67%|   0.79%
 time | node  | left  |LP iter|LP it/n|mem/heur|mdpt |vars |cons |rows |cuts |sepa|confs|strbr|  dualbound   | primalbound  |  gap   | compl. 
  364s|    53 |    42 |  8510 | 137.6 |    42M |  13 |7050 |  48 |  48 |   0 |  1 |   0 |   0 | 6.000000e+00 | 7.000000e+00 |  16.67%|   0.79%
 time | node  | left  |LP iter|LP it/n|mem/heur|mdpt |vars |cons |rows |cuts |sepa|confs|strbr|  dualbound   | primalbound  |  gap   | compl. 
  365s|    54 |    43 |  8539 | 135.5 |    42M |  13 |7050 |  48 |  48 |   0 |  1 |   0 |   0 | 6.000000e+00 | 7.000000e+00 |  16.67%|   0.79%
 time | node  | left  |LP iter|LP it/n|mem/heur|mdpt |vars |cons |rows |cuts |sepa|confs|strbr|  dualbound   | primalbound  |  gap   | compl. 
  370s|    55 |    44 |  8837 | 138.5 |    44M |  13 |7322 |  48 |  48 |   0 |  1 |   0 |   0 | 6.000000e+00 | 7.000000e+00 |  16.67%|   0.79%
 time | node  | left  |LP iter|LP it/n|mem/heur|mdpt |vars |cons |rows |cuts |sepa|confs|strbr|  dualbound   | primalbound  |  gap   | compl. 
  370s|    56 |    45 |  8863 | 136.5 |    44M |  13 |7322 |  48 |  48 |   0 |  1 |   0 |   0 | 6.000000e+00 | 7.000000e+00 |  16.67%|   0.79%
 time | node  | left  |LP iter|LP it/n|mem/heur|mdpt |vars |cons |rows |cuts |sepa|confs|strbr|  dualbound   | primalbound  |  gap   | compl. 
  371s|    57 |    46 |  8899 | 134.7 |    45M |  13 |7322 |  48 |  48 |   0 |  1 |   0 |   0 | 6.000000e+00 | 7.000000e+00 |  16.67%|   0.79%
 time | node  | left  |LP iter|LP it/n|mem/heur|mdpt |vars |cons |rows |cuts |sepa|confs|strbr|  dualbound   | primalbound  |  gap   | compl. 
  373s|    58 |    45 |  8999 | 134.1 |    45M |  14 |7415 |  48 |  48 |   0 |  0 |   0 |   0 | 6.000000e+00 | 7.000000e+00 |  16.67%|   0.79%
 time | node  | left  |LP iter|LP it/n|mem/heur|mdpt |vars |cons |rows |cuts |sepa|confs|strbr|  dualbound   | primalbound  |  gap   | compl. 
r 373s|    59 |     0 |  9017 | 132.1 |simplero|  14 |7415 |  48 |  48 |   0 |  0 |   0 |   0 | 6.000000e+00 | 6.000000e+00 |   0.00%| 100.00%

SCIP Status        : problem is solved [optimal solution found]
Solving Time (sec) : 373.39
Solving Nodes      : 59
Primal Bound       : +6.00000000000000e+00 (177 solutions)
Dual Bound         : +6.00000000000000e+00
Gap                : 0.00 %
Running with parallel: True bidir: True symbreak: True
Number of Nodes:  48
48.95833333333333% holds
starting cheapest insertion heuristic
Heuristic without TSP improvement:  8
Heuristic without TSP improvement time:  0.1
Heuristic Sol:  8
Heuristic total time:  0.1
[[15, 32, 3, 5, 0, 43], [29, 22, 8], [47, 39, 16, 14, 24, 17, 12, 23, 35], [46, 37, 33, 45, 19, 18, 2, 36, 10, 4], [44, 9, 34, 13], [42, 20, 21, 1, 7, 41, 25], [40, 28], [38, 31, 30, 26, 27, 6, 11]]
Instance path:  /home/htc/mghannam/SCRATCH/lccp-rust/data/t62_att48.npcc
Timelimit:  7200
Heuristic without TSP improvement:  8
Heuristic without TSP improvement time:  0.1
Heuristic Sol:  8
Heuristic total time:  0.5
at 1 zero_duals: 40
at1, LP obj: 8.0 n_added_paths: 288
at 1 zero_duals: 34
at1, LP obj: 8.0 n_added_paths: 47
at 1 zero_duals: 35
at1, LP obj: 8.0 n_added_paths: 102
at 1 zero_duals: 29
at1, LP obj: 8.0 n_added_paths: 426
at 1 zero_duals: 19
at1, LP obj: 7.654761904761905 n_added_paths: 572
at 1 zero_duals: 16
at1, LP obj: 6.923566878980892 n_added_paths: 492
at 1 zero_duals: 14
at1, LP obj: 6.3125 n_added_paths: 341
at 1 zero_duals: 8
at1, LP obj: 5.996423658872077 n_added_paths: 412
at 1 zero_duals: 10
at1, LP obj: 5.8954545454545455 n_added_paths: 245
at 1 zero_duals: 9
at1, LP obj: 5.7191011235955065 n_added_paths: 244
at 1 zero_duals: 9
Switching to elementary pricing
at1, LP obj: 5.666666666666667 n_added_paths: 98
updated lowerbound from 1.0 to 3
at 1 zero_duals: 10
at1, LP obj: 5.648648648648649 n_added_paths: 106
at 1 zero_duals: 9
at1, LP obj: 5.6 n_added_paths: 111
at 1 zero_duals: 7
at1, LP obj: 5.573770491803279 n_added_paths: 179
at 1 zero_duals: 6
at1, LP obj: 5.572289156626506 n_added_paths: 222
at 1 zero_duals: 7
Switching to elementary pricing
at1, LP obj: 5.571428571428571 n_added_paths: 160
updated lowerbound from 3.0 to 4
at 1 zero_duals: 7
Switching to elementary pricing
at1, LP obj: 5.571428571428571 n_added_paths: 201
at 1 zero_duals: 5
Switching to elementary pricing
at1, LP obj: 5.571428571428571 n_added_paths: 175
at 1 zero_duals: 8
Switching to elementary pricing
at1, LP obj: 5.571428571428571 n_added_paths: 161
at 1 zero_duals: 3
Switching to elementary pricing
at1, LP obj: 5.570093457943925 n_added_paths: 155
at 1 zero_duals: 2
Switching to elementary pricing
at1, LP obj: 5.566115702479339 n_added_paths: 149
updated lowerbound from 4.0 to 5
at 1 zero_duals: 3
Switching to elementary pricing
at1, LP obj: 5.528301886792453 n_added_paths: 75
at 1 zero_duals: 2
Switching to elementary pricing
at1, LP obj: 5.508928571428571 n_added_paths: 54
updated lowerbound from 5.0 to 6
Gap too small = 0, stopping pricing with lb = 6
Gap too small = 0, stopping pricing with lb = 6
Gap too small = 0, stopping pricing with lb = 6
Gap too small = 0, stopping pricing with lb = 6
Gap too small = 0, stopping pricing with lb = 6
Gap too small = 0, stopping pricing with lb = 6
Gap too small = 0, stopping pricing with lb = 6
Gap too small = 0, stopping pricing with lb = 6
Gap too small = 0, stopping pricing with lb = 6
Gap too small = 0, stopping pricing with lb = 6
Gap too small = 0, stopping pricing with lb = 6
Gap too small = 0, stopping pricing with lb = 6
at 21 zero_duals: 15
at21, LP obj: 6.127777777777778 n_added_paths: 66
at 21 zero_duals: 9
at21, LP obj: 6.055430711610487 n_added_paths: 70
Gap too small = 0, stopping pricing with lb = 6
Gap too small = 0, stopping pricing with lb = 6
Gap too small = 0, stopping pricing with lb = 6
Gap too small = 0, stopping pricing with lb = 6
Gap too small = 0, stopping pricing with lb = 6
at 29 zero_duals: 17
Switching to elementary pricing
at29, LP obj: 6.571428571428571 n_added_paths: 306
at 29 zero_duals: 13
Switching to elementary pricing
at29, LP obj: 6.0875 n_added_paths: 13
at 29 zero_duals: 14
Switching to elementary pricing
at29, LP obj: 6.071428571428571 n_added_paths: 3
at 29 zero_duals: 14
Switching to elementary pricing
at29, LP obj: 6.071428571428571 n_added_paths: 1
updated lowerbound from 6.0 to 7
Gap too small = 0, stopping pricing with lb = 6
Gap too small = 0, stopping pricing with lb = 6
Gap too small = 0, stopping pricing with lb = 6
Gap too small = 0, stopping pricing with lb = 6
Gap too small = 0, stopping pricing with lb = 6
Gap too small = 0, stopping pricing with lb = 6
Gap too small = 0, stopping pricing with lb = 6
Gap too small = 0, stopping pricing with lb = 6
Gap too small = 0, stopping pricing with lb = 6
Gap too small = 0, stopping pricing with lb = 6
Gap too small = 0, stopping pricing with lb = 6
Gap too small = 0, stopping pricing with lb = 6
Gap too small = 0, stopping pricing with lb = 6
at 58 zero_duals: 10
at58, LP obj: 6.108225108225108 n_added_paths: 157
at 58 zero_duals: 11
Switching to elementary pricing
at58, LP obj: 6.056818181818182 n_added_paths: 31
Gap too small = 0, stopping pricing with lb = 6
Gap too small = 0, stopping pricing with lb = 6
Gap too small = 0, stopping pricing with lb = 6
Gap too small = 0, stopping pricing with lb = 6
Gap too small = 0, stopping pricing with lb = 6
at 68 zero_duals: 11
Switching to elementary pricing
at68, LP obj: 6.272350230414747 n_added_paths: 257
at 68 zero_duals: 9
Switching to elementary pricing
at68, LP obj: 6.044585987261146 n_added_paths: 67
Gap too small = 0, stopping pricing with lb = 6
at 24 zero_duals: 47
Switching to elementary pricing
at24, LP obj: 1e+20 n_added_paths: 24
updated lowerbound from 6.0 to 100000000000000000000
at 24 zero_duals: 47
Switching to elementary pricing
at24, LP obj: 1e+20 n_added_paths: 0
updated lowerbound from 6.0 to 100000000000000000000
Gap too small = 0, stopping pricing with lb = 6
at 72 zero_duals: 11
Switching to elementary pricing
at72, LP obj: 6.060283687943262 n_added_paths: 90
at 72 zero_duals: 9
Switching to elementary pricing
at72, LP obj: 6.0600000000000005 n_added_paths: 72
Gap too small = 0, stopping pricing with lb = 6
at 55 zero_duals: 18
at55, LP obj: 6.0625 n_added_paths: 134
at 55 zero_duals: 18
Switching to elementary pricing
at55, LP obj: 6.0476190476190474 n_added_paths: 2
at 55 zero_duals: 13
Switching to elementary pricing
at55, LP obj: 6.035714285714286 n_added_paths: 16
at 55 zero_duals: 17
Switching to elementary pricing
at55, LP obj: 6.032967032967033 n_added_paths: 13
at 55 zero_duals: 11
Switching to elementary pricing
at55, LP obj: 6.031963470319635 n_added_paths: 48
Gap too small = 0, stopping pricing with lb = 6
at 76 zero_duals: 16
Switching to elementary pricing
at76, LP obj: 6.0285714285714285 n_added_paths: 33
at 76 zero_duals: 15
Switching to elementary pricing
at76, LP obj: 6.015873015873016 n_added_paths: 22
Gap too small = 0, stopping pricing with lb = 6
at 78 zero_duals: 14
Switching to elementary pricing
at78, LP obj: 6.015873015873016 n_added_paths: 8
at 78 zero_duals: 11
Switching to elementary pricing
at78, LP obj: 6.011764705882353 n_added_paths: 12
at 78 zero_duals: 4
Switching to elementary pricing
at78, LP obj: 6.00990099009901 n_added_paths: 14
Gap too small = 0, stopping pricing with lb = 6
at 80 zero_duals: 22
Switching to elementary pricing
at80, LP obj: 6.0476190476190474 n_added_paths: 3
at 80 zero_duals: 19
Switching to elementary pricing
at80, LP obj: 6.0476190476190474 n_added_paths: 3
at 80 zero_duals: 19
Switching to elementary pricing
at80, LP obj: 6.0476190476190474 n_added_paths: 0
updated lowerbound from 6.0 to 7
at 81 zero_duals: 13
at81, LP obj: 6.210526315789474 n_added_paths: 37
at 81 zero_duals: 11
at81, LP obj: 6.196911196911197 n_added_paths: 142
at 81 zero_duals: 17
Switching to elementary pricing
at81, LP obj: 6.071428571428571 n_added_paths: 11
at 81 zero_duals: 8
Switching to elementary pricing
at81, LP obj: 6.058823529411765 n_added_paths: 38
at 81 zero_duals: 14
Switching to elementary pricing
at81, LP obj: 6.052631578947368 n_added_paths: 8
at 81 zero_duals: 6
Switching to elementary pricing
at81, LP obj: 6.051655629139073 n_added_paths: 51
at 81 zero_duals: 17
Switching to elementary pricing
at81, LP obj: 6.0285714285714285 n_added_paths: 1
at 81 zero_duals: 17
Switching to elementary pricing
at81, LP obj: 6.0285714285714285 n_added_paths: 0
updated lowerbound from 6.0 to 7
at 77 zero_duals: 20
Switching to elementary pricing
at77, LP obj: 6.285714285714286 n_added_paths: 37
at 77 zero_duals: 11
Switching to elementary pricing
at77, LP obj: 6.273255813953488 n_added_paths: 140
at 77 zero_duals: 14
at77, LP obj: 6.142857142857143 n_added_paths: 10
at 77 zero_duals: 14
at77, LP obj: 6.142857142857143 n_added_paths: 10
at 77 zero_duals: 13
Switching to elementary pricing
at77, LP obj: 6.142857142857142 n_added_paths: 11
at 77 zero_duals: 16
Switching to elementary pricing
at77, LP obj: 6.142857142857143 n_added_paths: 3
updated lowerbound from 6.0 to 7
at 79 zero_duals: 12
Switching to elementary pricing
at79, LP obj: 6.102272727272727 n_added_paths: 14
at 79 zero_duals: 11
Switching to elementary pricing
at79, LP obj: 6.096774193548387 n_added_paths: 1
updated lowerbound from 6.0 to 7
Gap too small = 0, stopping pricing with lb = 6
Gap too small = 0, stopping pricing with lb = 6
Gap too small = 0, stopping pricing with lb = 6
Gap too small = 0, stopping pricing with lb = 6
Gap too small = 0, stopping pricing with lb = 6
Gap too small = 0, stopping pricing with lb = 6
Gap too small = 0, stopping pricing with lb = 6
Gap too small = 0, stopping pricing with lb = 6
at 96 zero_duals: 4
Switching to elementary pricing
at96, LP obj: 6.026392961876833 n_added_paths: 272
Gap too small = 0, stopping pricing with lb = 6
Gap too small = 0, stopping pricing with lb = 6
Gap too small = 0, stopping pricing with lb = 6
at 102 zero_duals: 12
at102, LP obj: 6.029411764705883 n_added_paths: 11
at 102 zero_duals: 10
Switching to elementary pricing
at102, LP obj: 6.029197080291971 n_added_paths: 68
at 102 zero_duals: 7
Switching to elementary pricing
at102, LP obj: 6.010753758837001 n_added_paths: 12
at 102 zero_duals: 6
Switching to elementary pricing
at102, LP obj: 6.009511147473921 n_added_paths: 2
updated lowerbound from 6.0 to 7
Best solution found:
[44, 34, 9, 15, 43, 13, 44] 1.0 1.0
checking cycle [44, 34, 9, 15, 43, 13, 44]
[44, 34, 9, 15, 43, 13, 44] 2052 1934
[29, 8, 27, 22, 5, 3, 0, 29] 1.0 1.0
checking cycle [29, 8, 27, 22, 5, 3, 0, 29]
[29, 8, 27, 22, 5, 3, 0, 29] 3132 2816
[47, 39, 23, 12, 40, 32, 35, 47] 1.0 1.0
checking cycle [47, 39, 23, 12, 40, 32, 35, 47]
[47, 39, 23, 12, 40, 32, 35, 47] 1777 1645
[33, 24, 17, 16, 23, 22, 28, 26, 6, 11, 31, 30, 33] 1.0 1.0
checking cycle [33, 24, 17, 16, 23, 22, 28, 26, 6, 11, 31, 30, 33]
[33, 24, 17, 16, 23, 22, 28, 26, 6, 11, 31, 30, 33] 3009 2995
[46, 38, 14, 33, 45, 37, 4, 46] 1.0 1.0
checking cycle [46, 38, 14, 33, 45, 37, 4, 46]
[46, 38, 14, 33, 45, 37, 4, 46] 1818 1806
[42, 19, 4, 10, 2, 36, 18, 1, 21, 20, 7, 41, 25, 42] 1.0 1.0
checking cycle [42, 19, 4, 10, 2, 36, 18, 1, 21, 20, 7, 41, 25, 42]
[42, 19, 4, 10, 2, 36, 18, 1, 21, 20, 7, 41, 25, 42] 2161 1984
